
Gurobi 10.0.1 (linux64) logging started Tue May  9 14:39:03 2023

Set parameter LogFile to value "logFiles/N-1L-B/N-1L-13U-15F-23V-180D-basic.log"
Gurobi Optimizer version 10.0.1 build v10.0.1rc0 (linux64)

CPU model: Intel(R) Xeon(R) Gold 5115 CPU @ 2.40GHz, instruction set [SSE2|AVX|AVX2|AVX512]
Thread count: 20 physical cores, 40 logical processors, using up to 20 threads

Optimize a model with 121847 rows, 1538712 columns and 11206377 nonzeros
Model fingerprint: 0x06965bc0
Variable types: 2535 continuous, 1536177 integer (1536177 binary)
Coefficient statistics:
  Matrix range     [1e+00, 2e+05]
  Objective range  [4e+01, 3e+07]
  Bounds range     [1e+00, 1e+00]
  RHS range        [1e+00, 2e+06]
Presolve removed 61819 rows and 83822 columns (presolve time = 5s) ...
Presolve removed 68457 rows and 83830 columns (presolve time = 10s) ...
Presolve removed 70531 rows and 137369 columns (presolve time = 15s) ...
Presolve removed 70535 rows and 137369 columns (presolve time = 20s) ...
Presolve removed 70535 rows and 137369 columns (presolve time = 26s) ...
Presolve removed 70535 rows and 137369 columns (presolve time = 30s) ...
Presolve removed 70535 rows and 137369 columns (presolve time = 35s) ...
Presolve removed 70535 rows and 137369 columns (presolve time = 40s) ...
Presolve removed 70366 rows and 137200 columns
Presolve time: 41.00s
Presolved: 51481 rows, 1401512 columns, 8177390 nonzeros
Variable types: 2548 continuous, 1398964 integer (1398910 binary)
Deterministic concurrent LP optimizer: primal simplex, dual simplex, and barrier
Showing barrier log only...

Root barrier log...

Ordering time: 3.31s

Barrier statistics:
 AA' NZ     : 3.709e+06
 Factor NZ  : 1.513e+07 (roughly 700 MB of memory)
 Factor Ops : 3.053e+10 (less than 1 second per iteration)
 Threads    : 17

                  Objective                Residual
Iter       Primal          Dual         Primal    Dual     Compl     Time
   0  -6.27933701e+16  4.36235594e+12  6.86e+09 5.96e+05  1.83e+11    60s
   1  -1.74779667e+16  8.10317532e+12  1.91e+09 5.00e+05  5.14e+10    61s
   2  -3.08848615e+15  8.25694495e+12  3.41e+08 3.09e+04  9.22e+09    61s
   3  -5.90359917e+13  5.24566506e+12  6.52e+06 2.04e+02  1.78e+08    62s
   4  -3.98895891e+13  3.27158734e+12  4.40e+06 8.39e+01  1.21e+08    63s
   5  -2.20823450e+13  2.83354245e+12  2.44e+06 5.85e+01  6.73e+07    63s
   6  -1.36444391e+13  2.58916786e+12  1.51e+06 5.01e+01  4.18e+07    64s
   7  -7.74615526e+12  2.09937831e+12  8.54e+05 3.09e+01  2.40e+07    65s
   8  -5.84322174e+12  1.44868542e+12  6.44e+05 8.70e+00  1.81e+07    65s
   9  -8.72036931e+11  1.18760209e+12  9.62e+04 2.44e+00  3.03e+06    66s
  10  -4.81316350e+11  9.23533834e+11  5.31e+04 1.40e-09  1.69e+06    67s
  11  -2.27831389e+11  6.83370916e+11  2.53e+04 1.16e-09  8.39e+05    67s
  12  -9.87352653e+10  5.14304194e+11  1.11e+04 1.22e-09  4.26e+05    68s
  13  -6.95671649e+10  4.70233795e+11  7.90e+03 1.16e-09  3.36e+05    69s
  14  -1.32971917e+10  2.60663657e+11  1.73e+03 1.43e-09  1.24e+05    69s
  15  -4.43130596e+09  1.07850811e+11  7.47e+02 1.80e-09  4.89e+04    70s
  16  -3.00827834e+08  5.78032475e+10  2.92e+02 1.63e-09  2.38e+04    70s
  17   8.42163638e+08  4.14396760e+10  1.66e+02 1.47e-08  1.62e+04    71s
  18   1.52289386e+09  2.91512975e+10  9.19e+01 1.65e-08  1.08e+04    72s
  19   1.87452293e+09  2.47530486e+10  5.42e+01 1.58e-08  8.71e+03    73s
  20   2.02043298e+09  1.86388989e+10  3.92e+01 2.27e-08  6.32e+03    73s
  21   2.04037024e+09  1.74329164e+10  3.71e+01 2.62e-08  5.87e+03    74s
  22   2.06652608e+09  1.63506346e+10  3.44e+01 2.99e-08  5.45e+03    74s
  23   2.15914127e+09  1.15295876e+10  2.49e+01 4.20e-08  3.63e+03    75s
  24   2.24278548e+09  9.18732547e+09  1.65e+01 3.73e-08  2.69e+03    76s
  25   2.25247231e+09  8.60936818e+09  1.55e+01 2.68e-08  2.48e+03    77s
  26   2.29858103e+09  7.44113646e+09  1.11e+01 3.48e-08  1.99e+03    78s
  27   2.33882349e+09  7.05708971e+09  7.34e+00 3.26e-08  1.79e+03    79s
  28   2.37462462e+09  5.94957582e+09  4.53e+00 4.63e-08  1.35e+03    80s
  29   2.38404261e+09  5.77183262e+09  4.08e+00 4.61e-08  1.28e+03    81s
  30   2.39339701e+09  4.60349272e+09  3.68e+00 5.36e-08  8.42e+02    82s
  31   2.40270351e+09  4.05512991e+09  3.06e+00 4.37e-08  6.28e+02    83s
  32   2.41864611e+09  3.36220781e+09  1.93e+00 3.48e-08  3.54e+02    84s
  33   2.42338396e+09  3.35089949e+09  1.73e+00 5.51e-08  3.46e+02    85s
  34   2.43142919e+09  3.10953991e+09  1.41e+00 3.78e-08  2.52e+02    86s
  35   2.43402431e+09  3.01080435e+09  1.25e+00 4.05e-08  2.13e+02    87s
  36   2.44307579e+09  2.86651357e+09  7.97e-01 3.57e-08  1.55e+02    88s
  37   2.44334934e+09  2.83697572e+09  7.89e-01 4.13e-08  1.44e+02    89s
  38   2.44753731e+09  2.76413425e+09  6.81e-01 6.36e-08  1.16e+02    90s
  39   2.45009613e+09  2.66830148e+09  5.85e-01 5.12e-08  7.95e+01    91s
  40   2.45553280e+09  2.60652035e+09  4.08e-01 3.85e-08  5.49e+01    92s
  41   2.45869665e+09  2.59395727e+09  3.31e-01 4.37e-08  4.90e+01    93s
  42   2.46232342e+09  2.57528369e+09  2.59e-01 5.89e-08  4.08e+01    94s
  43   2.46409320e+09  2.56356383e+09  2.31e-01 5.61e-08  3.60e+01    95s
  44   2.46742044e+09  2.55058206e+09  1.81e-01 5.36e-08  3.00e+01    96s
  45   2.46995956e+09  2.54107736e+09  1.50e-01 4.51e-08  2.56e+01    97s
  46   2.47076489e+09  2.53739182e+09  1.42e-01 4.70e-08  2.40e+01    98s
  47   2.47353168e+09  2.53206159e+09  1.13e-01 5.20e-08  2.11e+01    99s
  48   2.47435273e+09  2.53033874e+09  1.06e-01 6.18e-08  2.02e+01   100s
  49   2.47627196e+09  2.52553796e+09  9.32e-02 6.01e-08  1.77e+01   101s
  50   2.47824116e+09  2.52171448e+09  7.93e-02 6.91e-08  1.56e+01   102s
  51   2.47834562e+09  2.51947330e+09  7.70e-02 7.54e-08  1.48e+01   103s
  52   2.47856045e+09  2.51855742e+09  7.54e-02 7.93e-08  1.44e+01   104s
  53   2.47974253e+09  2.51604808e+09  6.68e-02 8.12e-08  1.31e+01   105s
  54   2.48001699e+09  2.51514043e+09  6.49e-02 7.43e-08  1.26e+01   106s
  55   2.48131233e+09  2.51267547e+09  5.57e-02 8.97e-08  1.13e+01   107s
  56   2.48267004e+09  2.51065290e+09  4.57e-02 1.03e-07  1.01e+01   108s
  57   2.48345037e+09  2.50824068e+09  4.04e-02 9.55e-08  8.91e+00   109s
  58   2.48438588e+09  2.50545276e+09  3.46e-02 8.75e-08  7.57e+00   110s
  59   2.48548369e+09  2.50372908e+09  2.84e-02 1.08e-07  6.55e+00   111s
  60   2.48699895e+09  2.50274388e+09  2.14e-02 9.70e-08  5.65e+00   112s
  61   2.48800138e+09  2.50055184e+09  1.73e-02 9.06e-08  4.50e+00   113s
  62   2.48880145e+09  2.49885312e+09  1.42e-02 1.03e-07  3.61e+00   114s
  63   2.48974130e+09  2.49760611e+09  1.08e-02 9.99e-08  2.82e+00   115s
  64   2.49028258e+09  2.49593999e+09  8.91e-03 6.29e-08  2.03e+00   116s
  65   2.49052286e+09  2.49531749e+09  8.14e-03 6.27e-08  1.72e+00   117s
  66   2.49128457e+09  2.49462344e+09  5.63e-03 5.79e-08  1.20e+00   118s
  67   2.49162280e+09  2.49373877e+09  4.54e-03 6.00e-08  7.63e-01   119s
  68   2.49226809e+09  2.49352658e+09  2.45e-03 5.39e-08  4.54e-01   120s
  69   2.49253173e+09  2.49334987e+09  1.60e-03 8.37e-08  2.95e-01   121s
  70   2.49267957e+09  2.49323245e+09  1.10e-03 7.53e-08  1.99e-01   122s
  71   2.49279395e+09  2.49315739e+09  7.02e-04 6.66e-08  1.31e-01   122s
  72   2.49284629e+09  2.49308850e+09  5.20e-04 6.93e-08  8.75e-02   123s
  73   2.49291513e+09  2.49304999e+09  2.94e-04 6.11e-08  4.88e-02   124s
  74   2.49296122e+09  2.49303269e+09  1.39e-04 6.87e-08  2.58e-02   124s
  75   2.49299991e+09  2.49302035e+09  2.35e-05 5.31e-08  7.35e-03   125s
  76   2.49300282e+09  2.49301826e+09  1.52e-05 4.98e-08  5.54e-03   125s
  77   2.49300487e+09  2.49301090e+09  9.44e-06 6.57e-08  2.17e-03   126s
  78   2.49300798e+09  2.49300852e+09  7.38e-07 6.48e-08  1.93e-04   127s
  79   2.49300813e+09  2.49300820e+09  9.36e-08 5.66e-08  2.58e-05   127s
  80   2.49300815e+09  2.49300816e+09  1.35e-08 4.75e-08  6.82e-06   128s
  81   2.49300815e+09  2.49300815e+09  6.84e-08 1.05e-07  2.02e-07   129s
  82   2.49300815e+09  2.49300815e+09  2.16e-07 7.54e-08  2.35e-09   130s

Barrier solved model in 82 iterations and 130.25 seconds (123.27 work units)
Optimal objective 2.49300815e+09


Root crossover log...

   42639 DPushes remaining with DInf 4.6208895e-06               131s
       0 DPushes remaining with DInf 0.0000000e+00               134s

    2206 PPushes remaining with PInf 1.8540741e-04               134s
       0 PPushes remaining with PInf 0.0000000e+00               134s

  Push phase complete: Pinf 0.0000000e+00, Dinf 6.6071864e-02    134s


Root simplex log...

Iteration    Objective       Primal Inf.    Dual Inf.      Time
   44798    2.4930081e+09   0.000000e+00   6.607149e-02    134s
   44800    2.4930081e+09   0.000000e+00   0.000000e+00    134s
Concurrent spin time: 0.08s

Solved with barrier
   44800    2.4930081e+09   0.000000e+00   7.276544e+03    135s
   45031    2.4930081e+09   0.000000e+00   0.000000e+00    136s
Extra simplex iterations after uncrush: 231

Root relaxation: objective 2.493008e+09, 45031 iterations, 87.79 seconds (68.12 work units)
Total elapsed time = 140.59s

    Nodes    |    Current Node    |     Objective Bounds      |     Work
 Expl Unexpl |  Obj  Depth IntInf | Incumbent    BestBd   Gap | It/Node Time

     0     0 2.4930e+09    0  850          - 2.4930e+09      -     -  145s
     0     0 2.4930e+09    0  828          - 2.4930e+09      -     -  204s
     0     0 2.4930e+09    0  784          - 2.4930e+09      -     -  350s
     0     0 2.4930e+09    0  835          - 2.4930e+09      -     -  387s
     0     0 2.4930e+09    0  825          - 2.4930e+09      -     -  497s
     0     0 2.4928e+09    0  845          - 2.4928e+09      -     - 1251s
     0     0 2.4928e+09    0  832          - 2.4928e+09      -     - 1298s
     0     0 2.4928e+09    0  840          - 2.4928e+09      -     - 1325s
     0     0 2.4928e+09    0  811          - 2.4928e+09      -     - 1330s
     0     0 2.4928e+09    0  805          - 2.4928e+09      -     - 1331s
     0     0 2.4928e+09    0  807          - 2.4928e+09      -     - 1332s
     0     0 2.4928e+09    0  782          - 2.4928e+09      -     - 1342s
     0     0 2.4928e+09    0  782          - 2.4928e+09      -     - 1343s
     0     0 2.4928e+09    0  786          - 2.4928e+09      -     - 1346s
     0     0 2.4928e+09    0  784          - 2.4928e+09      -     - 1347s
     0     0 2.4928e+09    0  792          - 2.4928e+09      -     - 1356s
     0     0 2.4927e+09    0  794          - 2.4927e+09      -     - 1891s
     0     0 2.4927e+09    0  823          - 2.4927e+09      -     - 2074s
     0     0 2.4927e+09    0  832          - 2.4927e+09      -     - 2082s
     0     0 2.4927e+09    0  801          - 2.4927e+09      -     - 2123s
     0     0 2.4927e+09    0  802          - 2.4927e+09      -     - 2125s
     0     0 2.4927e+09    0  800          - 2.4927e+09      -     - 2148s
     0     0 2.4927e+09    0  800          - 2.4927e+09      -     - 2150s
     0     0 2.4927e+09    0  770          - 2.4927e+09      -     - 2155s
     0     0 2.4927e+09    0  770          - 2.4927e+09      -     - 2157s
     0     0 2.4927e+09    0  769          - 2.4927e+09      -     - 2166s
     0     0 2.4927e+09    0  770          - 2.4927e+09      -     - 2167s
     0     0 2.4927e+09    0  796          - 2.4927e+09      -     - 2183s
     0     0 2.4927e+09    0  840          - 2.4927e+09      -     - 2564s
     0     0 2.4927e+09    0  842          - 2.4927e+09      -     - 2566s
     0     0 2.4927e+09    0  813          - 2.4927e+09      -     - 2596s
     0     0 2.4927e+09    0  820          - 2.4927e+09      -     - 2636s
     0     0 2.4927e+09    0  808          - 2.4927e+09      -     - 2642s
     0     0 2.4927e+09    0  802          - 2.4927e+09      -     - 2704s
     0     0 2.4927e+09    0  781          - 2.4927e+09      -     - 2721s
     0     0 2.4927e+09    0  791          - 2.4927e+09      -     - 2842s
     0     0 2.4927e+09    0  866          - 2.4927e+09      -     - 3089s
     0     0 2.4927e+09    0  862          - 2.4927e+09      -     - 3091s
     0     0 2.4927e+09    0  874          - 2.4927e+09      -     - 3110s
     0     0 2.4927e+09    0  849          - 2.4927e+09      -     - 3119s
     0     0 2.4927e+09    0  875          - 2.4927e+09      -     - 3203s
     0     0 2.4927e+09    0  855          - 2.4927e+09      -     - 3317s
     0     0 2.4927e+09    0  858          - 2.4927e+09      -     - 4074s
     0     0 2.4927e+09    0  886          - 2.4927e+09      -     - 4306s
     0     0 2.4927e+09    0  834          - 2.4927e+09      -     - 5197s
     0     0 2.4927e+09    0  792          - 2.4927e+09      -     - 5221s
     0     0 2.4927e+09    0  799          - 2.4927e+09      -     - 5520s
     0     0 2.4927e+09    0  762          - 2.4927e+09      -     - 5580s
     0     0 2.4927e+09    0  765          - 2.4927e+09      -     - 5590s
     0     0 2.4926e+09    0  818          - 2.4926e+09      -     - 5737s
     0     0 2.4926e+09    0  844          - 2.4926e+09      -     - 5918s
     0     0 2.4926e+09    0  844          - 2.4926e+09      -     - 5934s
     0     0 2.4920e+09    0  863          - 2.4920e+09      -     - 6563s
     0     0 2.4920e+09    0  846          - 2.4920e+09      -     - 6926s
     0     0 2.4920e+09    0  856          - 2.4920e+09      -     - 6941s
     0     0 2.4920e+09    0  838          - 2.4920e+09      -     - 7174s
     0     0 2.4920e+09    0  814          - 2.4920e+09      -     - 7306s
     0     0 2.4920e+09    0  799          - 2.4920e+09      -     - 7322s
     0     0 2.4919e+09    0  867          - 2.4919e+09      -     - 7544s
     0     0 2.4919e+09    0  875          - 2.4919e+09      -     - 7657s
     0     0 2.4919e+09    0  860          - 2.4919e+09      -     - 7667s
     0     0 2.4917e+09    0  841          - 2.4917e+09      -     - 7859s
     0     0 2.4917e+09    0  839          - 2.4917e+09      -     - 7917s
     0     0 2.4917e+09    0  875          - 2.4917e+09      -     - 7963s
     0     0 2.4917e+09    0  865          - 2.4917e+09      -     - 7995s
     0     0 2.4914e+09    0  859          - 2.4914e+09      -     - 8246s
     0     0 2.4914e+09    0  857          - 2.4914e+09      -     - 8559s
     0     0 2.4914e+09    0  830          - 2.4914e+09      -     - 8903s
     0     0 2.4914e+09    0  865          - 2.4914e+09      -     - 8955s
     0     0 2.4908e+09    0  775          - 2.4908e+09      -     - 9425s
     0     0 2.4908e+09    0  767          - 2.4908e+09      -     - 9428s
     0     0 2.4908e+09    0  783          - 2.4908e+09      -     - 9466s
     0     0 2.4908e+09    0  758          - 2.4908e+09      -     - 9485s
     0     0 2.4908e+09    0  879          - 2.4908e+09      -     - 9703s
     0     0 2.4908e+09    0  880          - 2.4908e+09      -     - 9719s
     0     0 2.4908e+09    0  822          - 2.4908e+09      -     - 9769s
     0     0 2.4908e+09    0  841          - 2.4908e+09      -     - 9803s
     0     0 2.4908e+09    0  823          - 2.4908e+09      -     - 9836s
     0     0 2.4908e+09    0  840          - 2.4908e+09      -     - 9873s
     0     0 2.4908e+09    0  856          - 2.4908e+09      -     - 9911s
     0     0 2.4908e+09    0  839          - 2.4908e+09      -     - 9964s

Cutting planes:
  Cover: 26
  Implied bound: 25
  MIR: 41
  Flow cover: 16
  GUB cover: 1
  RLT: 16
  Relax-and-lift: 35

Explored 1 nodes (471469 simplex iterations) in 10800.04 seconds (10894.86 work units)
Thread count was 20 (of 40 available processors)

Solution count 0

Time limit reached
Best objective -, best bound 2.490762687468e+09, gap -
IIS computation: initial model status unknown, solving to determine model status
Presolve removed 61819 rows and 83822 columns (presolve time = 5s) ...
Presolve removed 68457 rows and 83830 columns (presolve time = 10s) ...
Presolve removed 68837 rows and 114719 columns (presolve time = 15s) ...
Presolve removed 70535 rows and 137369 columns (presolve time = 20s) ...
Presolve removed 70535 rows and 137369 columns (presolve time = 25s) ...
Presolve removed 70535 rows and 137369 columns (presolve time = 30s) ...
Presolve removed 70535 rows and 137369 columns (presolve time = 35s) ...
Presolve removed 70535 rows and 137369 columns (presolve time = 40s) ...
Presolve removed 70366 rows and 137200 columns
Presolve time: 41.90s
Presolved: 51481 rows, 1401512 columns, 8177390 nonzeros
Variable types: 2548 continuous, 1398964 integer (1398910 binary)
Deterministic concurrent LP optimizer: primal simplex, dual simplex, and barrier
Showing barrier log only...

Root barrier log...

Ordering time: 3.12s

Barrier statistics:
 AA' NZ     : 3.709e+06
 Factor NZ  : 1.513e+07 (roughly 700 MB of memory)
 Factor Ops : 3.053e+10 (less than 1 second per iteration)
 Threads    : 17

                  Objective                Residual
Iter       Primal          Dual         Primal    Dual     Compl     Time
   0  -0.00000000e+00  2.96477914e+05  6.86e+09 0.00e+00  1.23e+04    65s
   1  -0.00000000e+00  5.76906847e+05  1.63e+09 1.87e-02  2.93e+03    65s
   2  -0.00000000e+00  5.29297266e+05  5.99e+07 1.25e-16  1.10e+02    66s
   3  -0.00000000e+00  2.46597958e+05  4.83e+06 1.25e-16  8.98e+00    67s
   4  -0.00000000e+00  2.29944957e+05  3.31e+06 1.25e-16  6.01e+00    68s
   5  -0.00000000e+00  1.93354105e+05  2.28e+06 9.63e-17  3.88e+00    68s
   6  -0.00000000e+00  1.58090363e+05  1.20e+06 1.17e-16  1.91e+00    69s
   7  -0.00000000e+00  1.19362924e+05  6.32e+05 8.58e-17  9.22e-01    70s
   8  -0.00000000e+00  6.81312643e+04  2.89e+05 7.65e-17  3.32e-01    70s
   9  -0.00000000e+00  5.93776599e+04  1.15e+05 9.57e-17  1.35e-01    72s
  10  -0.00000000e+00  2.26043139e+04  1.47e+04 4.03e-17  1.63e-02    73s
  11  -0.00000000e+00  1.33012475e+04  3.04e+03 1.73e-16  6.10e-03    74s
  12  -0.00000000e+00  4.08909850e+03  3.40e+02 1.50e-08  1.57e-03    75s
  13  -0.00000000e+00  2.13450140e+03  2.40e+02 9.90e-09  8.26e-04    76s
  14  -0.00000000e+00  1.31364806e+03  1.50e+02 9.28e-09  5.08e-04    76s
  15  -0.00000000e+00  9.17045660e+02  8.62e+01 7.94e-09  3.49e-04    77s
  16  -0.00000000e+00  7.38963516e+02  5.35e+01 7.63e-09  2.78e-04    78s
  17  -0.00000000e+00  5.52519697e+02  4.36e+01 6.08e-09  2.09e-04    78s
  18  -0.00000000e+00  4.85694098e+02  4.21e+01 5.52e-09  1.84e-04    79s
  19  -0.00000000e+00  3.85280010e+02  3.86e+01 5.57e-09  1.48e-04    80s
  20  -0.00000000e+00  2.36764309e+02  2.59e+01 1.06e-08  9.20e-05    81s
  21  -0.00000000e+00  2.10883317e+02  2.18e+01 1.47e-08  8.19e-05    82s
  22  -0.00000000e+00  1.40581388e+02  1.47e+01 1.20e-08  5.50e-05    83s
  23  -0.00000000e+00  9.05652688e+01  9.37e+00 2.12e-08  3.57e-05    84s
  24  -0.00000000e+00  5.04667284e+01  5.00e+00 6.75e-08  1.97e-05    85s
  25  -0.00000000e+00  2.06606474e+01  1.40e+00 5.78e-08  7.71e-06    86s
  26  -0.00000000e+00  7.46933955e+00  8.24e-02 3.89e-08  2.69e-06    87s
  27  -0.00000000e+00  8.24640784e-01  5.96e-03 7.17e-09  2.99e-07    88s
  28  -0.00000000e+00  1.57747515e-03  1.59e-05 3.55e-11  5.98e-10    89s
  29  -0.00000000e+00  9.90226626e-09  1.60e-10 2.08e-15  3.75e-15    89s

Barrier solved model in 29 iterations and 89.37 seconds (93.08 work units)
Optimal objective -0.00000000e+00

  Building initial crossover basis                                98s
  Building initial crossover basis                               100s
  Building initial crossover basis                               105s
  Building initial crossover basis                               111s
  Building initial crossover basis                               116s
  Building initial crossover basis                               120s
  Building initial crossover basis                               126s
  Building initial crossover basis                               131s
  Building initial crossover basis                               136s
  Building initial crossover basis                               141s
  Building initial crossover basis                               146s
  Building initial crossover basis                               150s
  Building initial crossover basis                               155s
  Building initial crossover basis                               160s

Root crossover log...

   43060 DPushes remaining with DInf 0.0000000e+00               165s
       0 DPushes remaining with DInf 0.0000000e+00               165s

     194 PPushes remaining with PInf 3.6864362e-05               165s
       0 PPushes remaining with PInf 0.0000000e+00               165s

  Push phase complete: Pinf 0.0000000e+00, Dinf 0.0000000e+00    165s


Root simplex log...

Iteration    Objective       Primal Inf.    Dual Inf.      Time
   17880   -0.0000000e+00   0.000000e+00   0.000000e+00    165s
Concurrent spin time: 0.00s

Solved with barrier
   17880   -0.0000000e+00   0.000000e+00   0.000000e+00    166s

Root relaxation: objective -0.000000e+00, 17880 iterations, 113.31 seconds (97.34 work units)

    Nodes    |    Current Node    |     Objective Bounds      |     Work
 Expl Unexpl |  Obj  Depth IntInf | Incumbent    BestBd   Gap | It/Node Time

     0     0   -0.00000    0  886          -   -0.00000      -     -  611s
     0     0   -0.00000    0  842          -   -0.00000      -     - 2170s
     0     0   -0.00000    0  820          -   -0.00000      -     - 3100s
     0     0   -0.00000    0  791          -   -0.00000      -     - 4063s
     0     0   -0.00000    0  737          -   -0.00000      -     - 4969s
     0     0   -0.00000    0  727          -   -0.00000      -     - 4970s
     0     0   -0.00000    0  638          -   -0.00000      -     - 6230s
     0     0   -0.00000    0  601          -   -0.00000      -     - 6998s
     0     0   -0.00000    0  548          -   -0.00000      -     - 7703s
     0     0   -0.00000    0  542          -   -0.00000      -     - 8563s
     0     0   -0.00000    0  545          -   -0.00000      -     - 8981s
     0     0   -0.00000    0  542          -   -0.00000      -     - 9603s
     0     0   -0.00000    0  521          -   -0.00000      -     - 10383s

Cutting planes:
  Cover: 4
  Implied bound: 72
  Clique: 2
  MIR: 80
  Flow cover: 40
  GUB cover: 1
  Zero half: 2
  RLT: 58
  Relax-and-lift: 7

Explored 1 nodes (663464 simplex iterations) in 10800.02 seconds (12486.39 work units)
Thread count was 20 (of 40 available processors)

Solution count 0

Time limit reached
Best objective -, best bound -0.000000000000e+00, gap -
IIS runtime: 10800.05 seconds (12486.39 work units)

Gurobi 9.5.1 (win64) logging started Tue May 16 17:02:34 2023

Set parameter LogFile to value "logFiles/N-1L-B/N-1L-13U-15F-23V-180D-basic.log"
Gurobi Optimizer version 9.5.1 build v9.5.1rc2 (win64)
Thread count: 8 physical cores, 16 logical processors, using up to 16 threads
Optimize a model with 80295 rows, 1108500 columns and 5512286 nonzeros
Model fingerprint: 0x92fdecaa
Variable types: 670854 continuous, 437646 integer (437646 binary)
Coefficient statistics:
  Matrix range     [1e+00, 2e+05]
  Objective range  [4e+01, 3e+07]
  Bounds range     [1e+00, 1e+00]
  RHS range        [1e+00, 2e+06]
Presolve removed 46002 rows and 86709 columns (presolve time = 5s) ...
Presolve removed 46002 rows and 86721 columns (presolve time = 10s) ...
Presolve removed 46017 rows and 87105 columns (presolve time = 48s) ...
Presolve removed 46991 rows and 118547 columns (presolve time = 50s) ...
Presolve removed 46943 rows and 118499 columns
Presolve time: 52.43s
Presolved: 33352 rows, 990001 columns, 4099167 nonzeros
Variable types: 605904 continuous, 384097 integer (384097 binary)

Deterministic concurrent LP optimizer: primal simplex, dual simplex, and barrier
Showing barrier log only...

Root barrier log...

Ordering time: 1.18s

Barrier statistics:
 AA' NZ     : 2.195e+06
 Factor NZ  : 6.334e+06 (roughly 500 MB of memory)
 Factor Ops : 7.645e+09 (less than 1 second per iteration)
 Threads    : 5

                  Objective                Residual
Iter       Primal          Dual         Primal    Dual     Compl     Time
   0  -2.37748674e+16  4.84171894e+12  1.18e+09 7.18e+05  1.13e+11    64s
   1  -3.73954872e+15  5.59935558e+12  1.86e+08 6.72e+05  1.82e+10    65s
   2  -7.28972424e+14  4.58812791e+12  3.69e+07 1.59e+05  3.66e+09    66s
   3  -1.71643984e+13  3.29095595e+12  8.70e+05 3.22e+02  8.98e+07    67s
   4  -3.89929520e+12  1.52455553e+12  1.97e+05 8.76e+01  2.09e+07    68s
   5  -2.20198092e+12  1.03761901e+12  1.11e+05 1.57e+01  1.19e+07    69s
   6  -1.60342264e+12  8.95203602e+11  8.12e+04 8.29e+00  8.77e+06    70s
   7  -5.14766426e+11  7.28480169e+11  2.61e+04 1.63e-09  2.99e+06    71s
   8  -7.04530642e+10  5.08367973e+11  3.63e+03 1.75e-09  5.90e+05    72s
   9  -3.90653203e+10  3.33464692e+11  2.05e+03 1.63e-09  3.36e+05    73s
  10  -1.90379590e+10  1.90611756e+11  1.04e+03 1.98e-09  1.70e+05    74s
  11  -4.97665264e+09  1.06706708e+11  3.28e+02 1.83e-09  7.37e+04    75s
  12  -3.43785605e+09  3.59101414e+10  2.51e+02 3.39e-08  3.03e+04    76s
  13  -1.12068006e+09  3.20527558e+10  1.34e+02 2.63e-08  2.22e+04    76s
  14   5.46425737e+08  1.18697741e+10  5.01e+01 7.50e-08  7.53e+03    77s
  15   8.89355007e+08  9.54706754e+09  3.31e+01 4.16e-08  5.56e+03    79s
  16   1.14884750e+09  8.15032419e+09  2.03e+01 5.27e-08  4.26e+03    80s
  17   1.18175908e+09  6.96262259e+09  1.87e+01 4.08e-08  3.61e+03    81s
  18   1.23438097e+09  6.88022659e+09  1.62e+01 9.07e-08  3.45e+03    81s
  19   1.28843004e+09  5.67134359e+09  1.37e+01 5.68e-08  2.72e+03    82s
  20   1.39711557e+09  4.97368456e+09  8.70e+00 8.54e-08  2.13e+03    84s
  21   1.43636082e+09  3.96222772e+09  7.07e+00 5.46e-08  1.55e+03    85s
  22   1.50392417e+09  3.72486453e+09  4.66e+00 5.55e-08  1.31e+03    86s
  23   1.54236816e+09  3.47819535e+09  3.77e+00 9.32e-08  1.13e+03    88s
  24   1.56619855e+09  3.09144097e+09  3.01e+00 8.98e-08  8.92e+02    89s
  25   1.58243032e+09  2.94651897e+09  2.74e+00 7.75e-08  7.99e+02    91s
  26   1.62062056e+09  2.75920146e+09  2.16e+00 8.70e-08  6.58e+02    92s
  27   1.63282619e+09  2.49494168e+09  1.93e+00 9.20e-08  5.02e+02    93s
  28   1.66704717e+09  2.20864291e+09  1.46e+00 6.53e-08  3.13e+02    95s
  29   1.70854073e+09  2.04277640e+09  9.01e-01 7.75e-08  1.87e+02    97s
  30   1.72981452e+09  1.94149211e+09  6.70e-01 6.58e-08  1.17e+02    99s
  31   1.74439055e+09  1.91050978e+09  5.27e-01 7.47e-08  9.09e+01   100s
  32   1.75404494e+09  1.90037372e+09  4.29e-01 8.12e-08  7.93e+01   101s
  33   1.75929602e+09  1.87986109e+09  3.79e-01 8.04e-08  6.50e+01   102s
  34   1.76660437e+09  1.87350084e+09  3.17e-01 8.74e-08  5.73e+01   103s
  35   1.77595089e+09  1.85732819e+09  2.34e-01 1.01e-07  4.31e+01   104s
  36   1.78348563e+09  1.84540305e+09  1.66e-01 9.44e-08  3.23e+01   106s
  37   1.78756263e+09  1.84378111e+09  1.36e-01 9.33e-08  2.93e+01   107s
  38   1.79107359e+09  1.84128782e+09  1.12e-01 1.02e-07  2.61e+01   108s
  39   1.79311902e+09  1.83732695e+09  9.90e-02 1.18e-07  2.29e+01   110s
  40   1.79440816e+09  1.83639974e+09  9.19e-02 1.38e-07  2.17e+01   112s
  41   1.79799404e+09  1.83340314e+09  7.45e-02 1.18e-07  1.83e+01   113s
  42   1.79996952e+09  1.82971839e+09  6.50e-02 1.14e-07  1.54e+01   115s
  43   1.80088606e+09  1.82795452e+09  6.04e-02 1.10e-07  1.40e+01   116s
  44   1.80441278e+09  1.82613875e+09  4.33e-02 1.04e-07  1.12e+01   117s
  45   1.80575657e+09  1.82505347e+09  3.75e-02 8.87e-08  9.92e+00   119s
  46   1.80634285e+09  1.82418332e+09  3.49e-02 1.11e-07  9.16e+00   120s
  47   1.80704326e+09  1.82303612e+09  3.19e-02 1.13e-07  8.21e+00   122s
  48   1.80780792e+09  1.82223781e+09  2.88e-02 1.53e-07  7.41e+00   123s
  49   1.80932211e+09  1.82087666e+09  2.26e-02 1.48e-07  5.93e+00   125s
  50   1.81048725e+09  1.82032220e+09  1.80e-02 1.32e-07  5.04e+00   126s
  51   1.81164097e+09  1.81880425e+09  1.35e-02 1.11e-07  3.67e+00   128s
  52   1.81215243e+09  1.81785601e+09  1.16e-02 1.42e-07  2.92e+00   129s
  53   1.81234749e+09  1.81780813e+09  1.08e-02 8.97e-08  2.79e+00   131s
  54   1.81304047e+09  1.81742338e+09  8.34e-03 8.32e-08  2.24e+00   132s
  55   1.81415734e+09  1.81701766e+09  4.49e-03 7.40e-08  1.46e+00   134s
  56   1.81484351e+09  1.81671197e+09  2.16e-03 6.91e-08  9.50e-01   135s
  57   1.81524270e+09  1.81604137e+09  8.60e-04 1.20e-07  4.06e-01   137s
  58   1.81548384e+09  1.81577985e+09  1.21e-04 1.43e-07  1.50e-01   138s
  59   1.81550486e+09  1.81556817e+09  7.22e-05 8.69e-08  3.23e-02   139s
  60   1.81552817e+09  1.81554463e+09  1.82e-05 1.05e-07  8.40e-03   140s
  61   1.81553346e+09  1.81553892e+09  6.73e-06 7.07e-08  2.79e-03   142s
  62   1.81553635e+09  1.81553744e+09  1.06e-06 1.48e-07  5.57e-04   143s
  63   1.81553683e+09  1.81553709e+09  1.74e-07 5.76e-08  1.32e-04   144s
  64   1.81553687e+09  1.81553693e+09  7.61e-08 1.15e-07  3.06e-05   145s
  65   1.81553689e+09  1.81553692e+09  4.24e-08 8.79e-08  1.33e-05   147s
  66   1.81553690e+09  1.81553691e+09  2.99e-08 1.53e-07  1.99e-06   149s
  67   1.81553691e+09  1.81553691e+09  5.99e-10 1.23e-07  9.75e-08   150s
  68   1.81553691e+09  1.81553691e+09  2.14e-10 6.02e-08  2.33e-10   152s

Barrier solved model in 68 iterations and 151.86 seconds (89.45 work units)
Optimal objective 1.81553691e+09


Root crossover log...

   29181 DPushes remaining with DInf 0.0000000e+00               152s
       0 DPushes remaining with DInf 0.0000000e+00               154s

    1158 PPushes remaining with PInf 0.0000000e+00               154s
       0 PPushes remaining with PInf 0.0000000e+00               154s

  Push phase complete: Pinf 0.0000000e+00, Dinf 8.1222076e+03    154s


Root simplex log...

Iteration    Objective       Primal Inf.    Dual Inf.      Time
   30319    1.8155369e+09   0.000000e+00   8.122208e+03    154s
   30325    1.8155369e+09   0.000000e+00   0.000000e+00    155s
   30325    1.8155369e+09   0.000000e+00   0.000000e+00    156s
Concurrent spin time: 0.03s

Solved with barrier

Root relaxation: objective 1.815537e+09, 30325 iterations, 100.72 seconds (30.65 work units)
Total elapsed time = 161.52s

    Nodes    |    Current Node    |     Objective Bounds      |     Work
 Expl Unexpl |  Obj  Depth IntInf | Incumbent    BestBd   Gap | It/Node Time

     0     0 1.8155e+09    0  221          - 1.8155e+09      -     -  167s
     0     0 1.8155e+09    0  239          - 1.8155e+09      -     -  272s
     0     0 1.8155e+09    0  228          - 1.8155e+09      -     -  315s
     0     0 1.8155e+09    0  228          - 1.8155e+09      -     -  316s
     0     0 1.8155e+09    0  229          - 1.8155e+09      -     -  366s
     0     0 1.8155e+09    0  228          - 1.8155e+09      -     -  414s
     0     0 1.8155e+09    0  231          - 1.8155e+09      -     -  422s
     0     0 1.8155e+09    0  238          - 1.8155e+09      -     -  441s
H    0     0                    1.710633e+09 1.8155e+09  6.13%     -  464s

Cutting planes:
  Cover: 2
  Implied bound: 2
  MIR: 7
  Flow cover: 10
  Zero half: 1

Explored 1 nodes (50709 simplex iterations) in 464.85 seconds (278.98 work units)
Thread count was 16 (of 16 available processors)

Solution count 1: 1.71063e+09 

Optimal solution found (tolerance 1.00e-01)
Best objective 1.710633321237e+09, best bound 1.815497917046e+09, gap 6.1302%
Gurobi Optimizer version 9.5.1 build v9.5.1rc2 (win64)
Thread count: 8 physical cores, 16 logical processors, using up to 16 threads
Optimize a model with 80295 rows, 1608686 columns and 5512286 nonzeros
Model fingerprint: 0x8cc4e394
Variable types: 513942 continuous, 1094744 integer (1094744 binary)
Coefficient statistics:
  Matrix range     [1e+00, 2e+05]
  Objective range  [4e+01, 3e+07]
  Bounds range     [1e+00, 3e+05]
  RHS range        [1e+00, 2e+06]

MIP start from previous solve did not produce a new incumbent solution
MIP start from previous solve violates constraint flow[BAY,NGBON,109] by 1.000000000
Processed MIP start in 1.99 seconds (0.58 work units)

Presolve removed 74766 rows and 1478148 columns (presolve time = 5s) ...
Presolve removed 74766 rows and 1478148 columns
Presolve time: 5.62s
Presolved: 5529 rows, 130538 columns, 483490 nonzeros
Variable types: 846 continuous, 129692 integer (129522 binary)
Found heuristic solution: objective 1.641472e+09

Root simplex log...

Iteration    Objective       Primal Inf.    Dual Inf.      Time
       0    3.8188006e+10   2.765643e+06   0.000000e+00     10s
    6349    1.7875446e+09   2.678974e+04   0.000000e+00     10s
   28775    1.7106260e+09   0.000000e+00   0.000000e+00     14s

Root relaxation: objective 1.710626e+09, 28775 iterations, 4.23 seconds (7.66 work units)

    Nodes    |    Current Node    |     Objective Bounds      |     Work
 Expl Unexpl |  Obj  Depth IntInf | Incumbent    BestBd   Gap | It/Node Time

     0     0 1.7106e+09    0   54 1.6415e+09 1.7106e+09  4.21%     -   13s

Explored 1 nodes (29222 simplex iterations) in 13.99 seconds (14.96 work units)
Thread count was 16 (of 16 available processors)

Solution count 1: 1.64147e+09 

Optimal solution found (tolerance 1.00e-01)
Best objective 1.641471760205e+09, best bound 1.710626005298e+09, gap 4.2129%
Gurobi Optimizer version 9.5.1 build v9.5.1rc2 (win64)
Thread count: 8 physical cores, 16 logical processors, using up to 16 threads
Optimize a model with 80295 rows, 1613185 columns and 5512286 nonzeros
Model fingerprint: 0xe92d13df
Variable types: 507200 continuous, 1105985 integer (1105985 binary)
Coefficient statistics:
  Matrix range     [1e+00, 2e+05]
  Objective range  [4e+01, 3e+07]
  Bounds range     [9e-11, 3e+05]
  RHS range        [1e+00, 2e+06]

MIP start from previous solve did not produce a new incumbent solution
MIP start from previous solve violates constraint charter_upper_capacity[NGBON,62,DESCON_5] by 55632.530000000
Processed MIP start in 1.40 seconds (0.57 work units)

Presolve removed 43148 rows and 1607601 columns
Presolve time: 0.42s

Explored 0 nodes (0 simplex iterations) in 2.56 seconds (1.53 work units)
Thread count was 1 (of 16 available processors)

Solution count 0

Model is infeasible or unbounded
Best objective -, best bound -, gap -

IIS computed: 1 constraints, 2 bounds
IIS runtime: 1.57 seconds (0.95 work units)
